\ LP format - for model browsing. Use MPS format to capture full model detail.
Maximize
  46.44943820224719 z1 + 23.70786516853933 z2 + 40.9438202247191 z3 + 14 z4
   + 25.97752808988765 z5 + 22.74157303370787 z6 + 19 z7
   + 10.67415730337078 z8 + 18 z9 + 32.96629213483146 z10
   + 12.60674157303371 z11 + 46 z12 + 19.50561797752809 z13 + 32 z14
   + 40.9438202247191 z15 + 38.69662921348313 z16 + 35.77528089887641 z17
   + 41 z18 + 47.84269662921349 z19 + 40 z20
Subject To
 constraint1: 47 z1 + 24 z2 + 41 z3 + 14 z4 + 26 z5 + 23 z6 + 19 z7 + 11 z8
   + 18 z9 + 33 z10 + 13 z11 + 46 z12 + 20 z13 + 32 z14 + 41 z15 + 39 z16
   + 36 z17 + 41 z18 + 48 z19 + 40 z20 <= 200
 constraints2_7_&_18: z7 - z18 = 0
 constraints2_18_&_20: z18 - z20 = 0
 constraints2_9_&_11: z9 - z11 = 0
 constraints2_12_&_16: z12 - z16 = 0
 constraints3_1_|_5: z1 + z5 <= 1
 constraints3_1_|_9: z1 + z9 <= 1
 constraints3_2_|_10: z2 + z10 <= 1
 constraints3_3_|_7: z3 + z7 <= 1
 constraints3_3_|_12: z3 + z12 <= 1
 constraints3_3_|_14: z3 + z14 <= 1
 constraints3_3_|_18: z3 + z18 <= 1
 constraints3_5_|_10: z5 + z10 <= 1
 constraints3_7_|_17: z7 + z17 <= 1
 constraints3_7_|_19: z7 + z19 <= 1
 constraints3_9_|_14: z9 + z14 <= 1
 constraints3_10_|_14: z10 + z14 <= 1
 constraints3_10_|_15: z10 + z15 <= 1
 constraints3_12_|_15: z12 + z15 <= 1
 constraints3_13_|_15: z13 + z15 <= 1
 constraints3_13_|_19: z13 + z19 <= 1
 constraints3_17_|_18: z17 + z18 <= 1
Bounds
Binaries
 z1 z2 z3 z4 z5 z6 z7 z8 z9 z10 z11 z12 z13 z14 z15 z16 z17 z18 z19 z20
End
